80 14070476
2 15 61 14 34 8 27 24 71 76 50 69 51 37 55 35 22 74 62 29 13 68 21 56 26 49 66 44 77 78 70 57 72 39 58 38 11 46 59 75 17 23 18 6 48 28 9 19 12 33 52 43 64 67 53 7 20 30 60 1 65 63 40 54 3 47 45 5 80 32 4 10 36 79 41 25 42 16 31 73 
